n_res = 4;
rcap = [19, 19, 118, 117];
rtype = [1, 1, 2, 2];
n_tasks = 16;
modes = [ {1, 2, 3, 4}, {5, 6, 7, 8}, {9, 10, 11, 12}, {13, 14, 15, 16}, {17, 18, 19, 20}, {21, 22, 23, 24}, {25, 26, 27, 28}, {29, 30, 31, 32}, {33, 34, 35, 36}, {37, 38, 39, 40}, {41, 42, 43, 44}, {45, 46, 47, 48}, {49, 50, 51, 52}, {53, 54, 55, 56}, {57, 58, 59, 60}, {61, 62, 63, 64} ];
succ = [ {5, 7, 12}, {4, 6, 12}, {5, 7}, {5, 11, 16}, {9, 13}, {7}, {8}, {9, 10}, {14, 15}, {11, 15, 16}, {13}, {13, 15, 16}, {14}, {}, {}, {} ];
n_opt = 64;
dur = [3, 3, 8, 9, 2, 4, 5, 9, 1, 3, 7, 8, 5, 8, 10, 10, 5, 5, 7, 7, 3, 4, 4, 9, 6, 7, 8, 9, 2, 2, 2, 7, 1, 6, 8, 9, 5, 7, 7, 9, 1, 3, 5, 6, 3, 4, 4, 7, 2, 7, 10, 10, 4, 5, 6, 10, 1, 3, 8, 9, 1, 4, 5, 6];
rreq = [|  8,  0,  0,  9,  8,  5,  0,  0,  7,  0,  0,  6,  0,  3,  0,  1,  8, 10,  6,  2,  7,  0,  0,  4,  6,  4,  2,  0,  9,  0,  8,  6,  0,  0,  0,  0,  0,  5,  0,  4,  0,  8,  7,  5,  4,  0,  4,  3,  2,  0,  2,  0,  0,  9,  0,  7,  0,  0,  0,  7, 10,  0,  0, 10
        |  0,  8,  3,  0,  0,  0,  8,  5,  0,  8,  7,  0,  9,  0,  4,  0,  0,  0,  0,  0,  0,  9,  8,  0,  0,  0,  0,  5,  0,  5,  0,  0,  8,  7,  4,  2,  9,  0,  5,  0,  6,  0,  0,  0,  0,  1,  0,  0,  0,  3,  0,  1,  8,  0,  5,  0,  6,  5,  3,  0,  0,  6,  4,  0
        |  3,  3,  2,  1,  9,  9,  7,  6,  9,  6,  6,  3,  7,  5,  4,  5,  9,  9,  8,  8,  8,  4,  4,  2,  9,  8,  7,  7,  5,  7,  8,  5, 10, 10,  9,  9,  8,  5,  7,  3,  5,  5,  5,  5,  3,  3,  2,  2,  7,  5,  3,  4,  8,  8,  7,  6,  8,  5,  5,  2,  7,  5,  4,  4
        |  6,  6,  6,  6,  9,  7,  3,  2,  9,  9,  8,  8,  9,  8,  6,  6,  7,  6,  3,  6,  8,  6,  7,  5,  6,  6,  6,  5,  4,  4,  3,  3,  8,  7,  7,  4,  2,  2,  2,  1,  8,  7,  7,  3,  8,  4,  4,  2,  6,  6,  6,  6, 10,  8,  4,  4,  8,  8,  4,  2,  9,  9,  9,  8 |];
